%mem=8gb
#N TD(NStates=10) CAM-B3lYP/6-311G(d,p)
 
Name
 
0 1
 6     -8.182487    7.128568   -1.105953
 8     -7.424227    6.343120   -0.197444
 6     -7.594299    4.990534   -0.210206
 6     -8.469618    4.302920   -1.054202
 6     -8.556066    2.912758   -0.982790
 6     -7.794556    2.189376   -0.065242
 7     -7.914267    0.769334    0.020459
 6     -6.774216   -0.050771    0.005910
 6     -6.768593   -1.297194    0.659475
 6     -5.644102   -2.104499    0.641031
 6     -4.467692   -1.716233   -0.024144
 6     -4.478614   -0.467096   -0.667243
 6     -5.599876    0.346473   -0.658344
 1     -5.576908    1.293575   -1.181667
 1     -3.602711   -0.138034   -1.215670
 6     -3.298009   -2.590422   -0.040351
16     -1.679247   -1.948306   -0.237981
 6     -0.956467   -3.542922   -0.138653
 6     -1.937570   -4.494386    0.044753
 6     -3.244337   -3.961437    0.093471
 1     -4.130751   -4.571350    0.204916
 1     -1.716499   -5.548000    0.153267
 6      0.466090   -3.755461   -0.253515
16      1.625967   -2.489340    0.090960
 6      2.982405   -3.542881   -0.263590
 6      2.526680   -4.802500   -0.602800
 6      1.123658   -4.920823   -0.599690
 1      0.598595   -5.824193   -0.878894
 1      3.192024   -5.607489   -0.884805
 6      4.348203   -3.095277   -0.180959
 6      5.489847   -3.875750   -0.107659
 6      6.681322   -3.134897   -0.049206
 6      6.495056   -1.761727   -0.065502
16      4.773393   -1.400692   -0.180140
 6      7.470840   -0.700054   -0.004172
 6      7.110588    0.645469    0.018098
 6      8.027128    1.709041    0.075048
 6      9.404895    1.522915    0.116380
 6      9.839338    0.149149    0.096587
 6      8.893835   -0.951326    0.037490
 7      9.486622   -2.145534    0.026726
16     11.103043   -1.887273    0.087207
 7     11.109838   -0.250030    0.128721
 6     10.416144    2.547404    0.177016
 6     10.318038    3.907627    0.206239
 6      9.086736    4.624554    0.179205
 7      8.074009    5.181561    0.156275
 6     11.527344    4.770239    0.270304
 8     12.682594    4.060852    0.295141
 1     13.395218    4.714294    0.336154
 8     11.502773    5.975544    0.297992
 1     11.429221    2.163911    0.203953
 1      7.621846    2.710797    0.088106
 1      6.059098    0.905844   -0.006957
 1      7.664200   -3.574760    0.016447
 1      5.457693   -4.956156   -0.073146
 1     -5.665615   -3.041239    1.185874
 1     -7.649607   -1.620623    1.198724
 6     -9.220243    0.201134    0.115168
 6    -10.139608    0.682707    1.047013
 6    -11.428031    0.154911    1.127792
 6    -11.808286   -0.887709    0.279495
 6    -10.887142   -1.380914   -0.653708
 6     -9.616649   -0.837159   -0.741459
 1     -8.917672   -1.217857   -1.476612
 1    -11.199291   -2.182431   -1.312207
 8    -13.035193   -1.482953    0.276218
 6    -14.013089   -1.020418    1.196578
 1    -13.687246   -1.158105    2.233800
 1    -14.254822    0.035405    1.029631
 1    -14.900545   -1.624742    1.016261
 1    -12.114575    0.557814    1.860159
 1     -9.849997    1.486332    1.713561
 6     -6.927688    2.890499    0.786592
 6     -6.820574    4.268759    0.708116
 1     -6.152769    4.816060    1.362263
 1     -6.334436    2.344841    1.510642
 1     -9.232054    2.385586   -1.645441
 1     -9.078993    4.830121   -1.775834
 1     -7.894368    8.161501   -0.918177
 1     -7.953658    6.873436   -2.146840
 1     -9.258874    7.016340   -0.932988

