%mem=8gb
#N CAM-B3LYP/6-311G(d,p) TD(NStates=10)

Name 

0 1
C1 6.514479 -5.099029 -3.065134
O2 6.734658 -4.522915 -1.784469
C3 5.962963 -3.468002 -1.404318
C4 4.956347 -2.892440 -2.184873
C5 4.233832 -1.805520 -1.694457
C6 4.482408 -1.293063 -0.421489
N7 3.743074 -0.174541 0.078229
C8 4.482614 0.950669 0.562011
C9 4.259269 1.458197 1.841637
C10 4.983345 2.550467 2.317637
C11 5.965941 3.136998 1.514939
O12 6.737045 4.198049 1.879661
C13 6.548404 4.762838 3.170290
C14 6.204393 2.620077 0.234641
C15 5.467752 1.546714 -0.237043
C16 2.347239 -0.180100 0.091987
C17 1.611204 1.022132 0.077431
C18 0.228652 1.010847 0.089435
C19 -0.501590 -0.193247 0.113107
C20 0.241274 -1.390413 0.130183
C21 1.622340 -1.390054 0.121749
C22 5.491725 -1.877964 0.355350
C23 6.227007 -2.945459 -0.131292
O24 -6.287828 3.898706 -1.646594
C25 -5.092388 3.746832 -1.583268
O26 -4.186972 4.658248 -1.991453
C27 -4.727426 5.878339 -2.533064
C28 -4.437042 2.535525 -1.048078
C29 -5.108863 1.449349 -0.572838
C30 -4.226000 0.425053 -0.119162
C31 -4.410476 -0.866214 0.404887
S32 -2.838597 -1.587150 0.715919
C33 -1.953172 -0.197316 0.126814
C34 -2.857537 0.782396 -0.265362
S35 -2.680261 2.379050 -0.976169
N36 -4.317371 -4.555628 1.824102
C37 -5.033589 -3.702517 1.499606
C38 -5.983300 -2.720302 1.126209
C39 -7.438059 -3.053122 1.260024
O40 -7.735349 -4.283157 1.736166
O41 -8.314802 -2.282969 0.965574
C42 -5.657832 -1.478368 0.644665
H43 7.228930 -5.915901 -3.149515
H44 6.696353 -4.375479 -3.867539
H45 5.497784 -5.496979 -3.156681
H46 4.734332 -3.267027 -3.174841
H47 3.463643 -1.355701 -2.309906
H48 3.508407 0.999366 2.474075
H49 4.782080 2.920034 3.313920
H50 6.757749 4.034684 3.961713
H51 5.531738 5.152440 3.293355
H52 7.258897 5.584456 3.241139
H53 6.968770 3.086191 -0.374939
H54 5.655472 1.157037 -1.230371
H55 2.134466 1.968643 0.056224
H56 -0.291001 1.960874 0.100409
H57 -0.274568 -2.343887 0.143239
H58 2.154676 -2.331534 0.138667
H59 5.698584 -1.485036 1.343570
H60 7.009211 -3.403588 0.461465
H61 -3.864721 6.482436 -2.802843
H62 -5.337381 6.387122 -1.785521
H63 -5.339324 5.664792 -3.410384
H64 -6.189126 1.407730 -0.562416
H65 -6.932698 -4.787427 1.929213
H66 -6.528000 -0.869985 0.411208

