%Mem=15GB
#N B3LYP/6-311G(d,p) OPT 

C88H68O8N6S

0 1
 7    -7.909998    1.253969    0.142774
 6    -6.574396    1.683095    0.071958
 6    -6.224716    3.020085    0.336904
 6    -4.905762    3.432674    0.271831
 6    -3.864764    2.547807   -0.070616
 6    -4.223248    1.209454   -0.333163
 6    -5.539841    0.789367   -0.261587
 6    -8.380227    0.190077   -0.684328
 6    -8.139772    0.186767   -2.058668
 6    -8.603813   -0.849372   -2.868563
 6    -9.342969   -1.893833   -2.307784
 6    -9.597928   -1.889730   -0.930465
 6    -9.116110   -0.867613   -0.130167
 6    -8.839962    1.896087    1.014106
 6    -8.530097    2.104237    2.367058
 6    -9.438078    2.716094    3.214291
 6   -10.693327    3.119209    2.739834
 6   -11.016552    2.904664    1.398167
 6   -10.088232    2.306347    0.546330
 1    -6.995209    3.733982    0.597669
 1    -4.680164    4.468964    0.498303
 6    -2.484840    2.999872   -0.162535
 1    -3.447475    0.499094   -0.580148
 1    -5.776883   -0.247270   -0.464487
 1    -7.577801    0.999546   -2.503043
 1    -8.394282   -0.819678   -3.929304
 8    -9.854190   -2.949249   -3.004504
 1   -10.167946   -2.708999   -0.509386
 1    -9.311809   -0.878149    0.935373
 1    -7.568412    1.783124    2.749042
 1    -9.205337    2.879494    4.259556
 8   -11.517579    3.699883    3.657963
 1   -11.976525    3.204572    0.999999
 1   -10.343805    2.149938   -0.494819
 6    -1.282906    2.275618   -0.145620
 6    -0.106285    3.094768   -0.254457
 6    -0.377809    4.465497   -0.378134
16    -2.112078    4.686524   -0.348304
 6     0.510252    5.603729   -0.504058
 6     0.009050    6.901710   -0.752363
 6     0.855298    7.984156   -0.867519
 6     2.256297    7.847595   -0.747145
 6     2.757878    6.550732   -0.496866
 6     1.913568    5.464646   -0.378821
 6     3.049220    9.041705   -0.889289
 6     4.395302    9.263865   -0.849832
 6     4.853720   10.666798   -1.041589
 8     4.127155   11.615023   -1.227708
 8     6.198576   10.777918   -0.985469
 7    -1.180821    0.924115   -0.077108
 7     1.127368    2.531332   -0.177907
 1    -1.057401    7.059955   -0.863452
 1     0.437961    8.966785   -1.060452
 1     3.821422    6.390273   -0.388936
 1     2.321048    4.484156   -0.181458
 1     2.480519    9.951504   -1.063693
 6     5.380494    8.258469   -0.643924
 1     6.401526   11.715065   -1.118375
 7     6.178366    7.437573   -0.477745
 6     0.017807    0.382125   -0.067225
 6     1.218367    1.224560   -0.043972
 6     0.056625   -1.099400   -0.126094
 6     0.956540   -1.795424   -0.945936
 6     2.863736   -0.298821    1.121652
 6     2.584582    0.693890    0.170991
 6     3.670141    1.260211   -0.515054
 6     4.970473    0.843827   -0.283801
 6     5.246095   -0.152584    0.671381
 6     4.162712   -0.711566    1.373495
 6     0.919234   -3.177455   -1.048123
 6    -0.022731   -3.928770   -0.323172
 6    -0.932293   -3.234188    0.494408
 6    -0.893412   -1.851338    0.580366
 1     3.481502    2.047183   -1.234934
 1     5.785583    1.299183   -0.831124
 1     4.345649   -1.475231    2.118017
 1     1.626466   -3.684753   -1.691361
 1    -1.675201   -3.785834    1.056155
 1    -1.616368   -1.332629    1.198018
 6   -12.804301    4.127650    3.235893
 6    -9.635946   -3.002584   -4.406606
 1   -13.281069    4.551523    4.118122
 1   -12.737793    4.895873    2.457164
 1   -13.406274    3.289106    2.867632
 1   -10.080230   -2.140066   -4.916237
 1    -8.567796   -3.054710   -4.646325
 1   -10.125273   -3.912775   -4.749452
 7     6.563324   -0.570972    0.920009
 6     7.321587   -1.100438   -1.356308
 6     7.553652   -0.523181   -0.107812
 6     8.792325    0.090731    0.127426
 6     9.765096    0.120671   -0.857495
 6     9.521054   -0.447919   -2.114088
 6     8.288091   -1.056718   -2.360896
 1     8.070818   -1.509849   -3.318708
 1     8.986667    0.543822    1.092135
 1     6.371857   -1.584646   -1.550533
 8    10.539567   -0.355970   -3.016430
 1    10.723176    0.595135   -0.683532
 6     7.636035   -2.272704    2.322719
 6     6.944038   -1.068002    2.202916
 6     6.655859   -0.341124    3.368280
 6     7.036569   -0.818062    4.610975
 6     7.736310   -2.026623    4.724127
 6     8.041139   -2.750216    3.569198
 1     6.128406    0.602131    3.290872
 1     7.869710   -2.842158    1.431142
 8     8.073392   -2.402074    5.991536
 1     6.818245   -0.261965    5.514580
 6    10.345412   -0.901550   -4.312771
 1    11.267560   -0.707872   -4.858250
 1    10.170051   -1.982760   -4.272741
 1     9.510267   -0.417634   -4.831847
 7    -0.054765   -5.332532   -0.413582
 6     1.279144   -7.052159   -1.552673
 6     0.357301   -5.996338   -1.607602
 6    -0.154800   -5.623844   -2.850921
 6     0.249857   -6.268547   -4.019704
 6     1.164996   -7.321932   -3.952753
 6     1.670346   -7.711439   -2.705973
 1     2.381259   -8.528037   -2.670234
 1    -0.872866   -4.814547   -2.909635
 1     1.684172   -7.354748   -0.594439
 8     1.623475   -8.026860   -5.027256
 1    -0.165465   -5.948922   -4.965976
 6    -1.419636   -7.151827    0.502168
 6    -0.491734   -6.127068    0.687818
 6     0.021807   -5.915156    1.976704
 6    -0.394468   -6.695710    3.041737
 6    -1.321505   -7.727857    2.846828
 6    -1.828151   -7.956576    1.565756
 1    -2.545492   -8.744915    1.381486
 1     0.749583   -5.128930    2.137603
 1    -1.823169   -7.330594   -0.487291
 8    -1.656472   -8.444559    3.958220
 1    -0.002626   -6.536135    4.038974
 6     1.150371   -7.674134   -6.318622
 6    -2.597563   -9.499139    3.822964
 1     1.647125   -8.350299   -7.012530
 1     0.065496   -7.806402   -6.400696
 1     1.409607   -6.640270   -6.573849
 1    -2.236195  -10.276247    3.139725
 1    -3.567841   -9.130120    3.471570
 1    -2.714414   -9.923285    4.818897
 1     8.581223   -3.685783    3.622832
 6     8.785842   -3.617345    6.168906
 1     8.946590   -3.714229    7.241391
 1     8.209166   -4.477954    5.811088
 1     9.755735   -3.593587    5.659081
 1     1.697901   -1.250975   -1.517365
 1     2.056105   -0.752177    1.682584




