%mem=8gb
#N TD(NStates=10) B3lYP/6-311G(d,p)
 
Name
 
0 1
1 -6.848501 1.447723 -1.225671
1 -9.849403 -1.401018 1.288192
1 -10.556753 1.912236 -1.343405
1 2.236446 -2.253271 1.356969
1 -5.631579 -2.225753 1.593213
1 -3.012075 -2.311230 1.448545
1 -1.775447 0.922417 -1.937024
1 0.827273 0.955055 -1.968890
1 4.833176 -2.024149 1.567007
1 5.885828 4.134410 2.228034
1 5.231700 1.761848 1.994243
1 5.740362 -1.973924 -1.580479
1 7.396067 -3.726424 -2.113294
1 9.636700 -3.700868 -1.038414
1 10.192386 -1.902134 0.583145
1 8.529784 -0.161524 1.129573
1 7.789158 1.392400 -1.430071
1 8.464192 3.755197 -1.182147
1 7.512528 5.143804 0.644640
7 -8.812246 1.046684 -0.761612
6 -7.514099 0.805559 -0.657652
6 -7.013284 -0.237607 0.151367
7 -7.862136 -1.023300 0.845057
6 -9.160715 -0.773585 0.733626
6 -9.646935 0.261062 -0.067867
8 -11.404771 1.569485 -1.005756
6 -11.115897 0.541499 -0.192186
8 -11.957145 -0.096913 0.384233
6 2.808023 -1.474185 0.869201
16 -0.414683 -0.993340 0.823102
16 -4.354085 0.422096 -0.518380
6 -5.595338 -0.522792 0.282331
6 -5.026311 -1.533928 1.025045
6 -3.620681 -1.570068 0.947824
6 -3.082070 -0.583616 0.143009
6 -1.699100 -0.322801 -0.167924
6 -1.164416 0.426295 -1.194092
6 0.246704 0.444332 -1.212090
6 0.825771 -0.288432 -0.196883
6 2.224075 -0.504399 0.085783
16 3.448277 0.580386 -0.557742
6 4.729816 -0.292173 0.286788
6 4.212645 -1.351837 0.990485
6 6.306062 3.539078 1.425276
6 5.934303 2.204504 1.298677
6 6.714639 -1.962591 -1.107721
6 7.650204 -2.948627 -1.401908
6 8.908773 -2.933568 -0.802713
6 9.220188 -1.921855 0.103455
6 8.286518 -0.938704 0.415676
6 7.025523 -0.948883 -0.193059
7 6.067496 0.060305 0.121739
6 6.466006 1.421906 0.267107
6 7.379921 1.993150 -0.627243
6 7.757030 3.323933 -0.482507
6 7.220904 4.105423 0.539870

