%mem=8gb
#N TD(NStates=10) PBE1PBE/6-311G(d,p)
 
Name
 
0 1
 6    -0.012345   -2.980026   -0.407714
 6     1.181844   -2.045438   -0.222401
 6     0.752200   -0.744172    0.018210
 6    -0.678945   -0.712420    0.018957
16    -1.952649    0.436098    0.234611
 6    -3.166989   -0.822632   -0.024199
 6    -4.590214   -0.504269    0.023730
 6    -5.077595    0.785619   -0.249982
 6    -6.432593    1.072378   -0.214590
 6    -7.369931    0.075781    0.102040
 7    -8.750787    0.360996    0.139017
 6    -9.214154    1.625471    0.604336
 6   -10.211451    2.315082   -0.096618
 1   -10.621524    1.883625   -1.001624
 6   -10.673568    3.542360    0.368124
 6   -10.140206    4.107439    1.525024
 6    -9.143025    3.426075    2.220855
 6    -8.687099    2.190479    1.772925
 1    -7.922238    1.658029    2.325222
 1    -8.725837    3.850586    3.127182
 1   -10.497770    5.066545    1.880804
 1   -11.446160    4.064263   -0.185371
 6    -9.697475   -0.610328   -0.296792
 6    -9.491944   -1.320371   -1.486903
 6   -10.419217   -2.268662   -1.906510
 6   -11.570826   -2.511165   -1.159718
 6   -11.782979   -1.798229    0.018937
 6   -10.852595   -0.860168    0.454890
 1   -11.016238   -0.314505    1.376158
 1   -12.672641   -1.980152    0.611433
 1   -12.294962   -3.245179   -1.493156
 1   -10.246749   -2.809387   -2.830429
 1    -8.605701   -1.124463   -2.078241
 6    -6.892132   -1.215381    0.383799
 6    -5.536667   -1.494682    0.344250
 1    -5.201094   -2.491617    0.604837
 1    -7.593124   -1.996191    0.650665
 1    -6.774959    2.072453   -0.448304
 1    -4.386677    1.572727   -0.531103
 6    -2.566632   -2.050285   -0.246603
 6    -1.159785   -1.989277   -0.220778
 1    -3.141310   -2.943633   -0.451656
16     2.061887    0.356529    0.220661
 6     3.231933   -0.951498   -0.037351
 6     2.575347   -2.161542   -0.253040
 1     3.115099   -3.079791   -0.447226
 6     4.640379   -0.717411    0.023240
16     5.733327   -2.034076    0.349049
 6     7.181931   -1.019341    0.262279
 6     6.783600    0.295128    0.016413
 6     5.371044    0.469850   -0.133365
 6     5.025084    1.801268   -0.517720
 6     6.119705    2.595367   -0.662240
16     7.647231    1.775514   -0.315112
 6     6.069008    4.017068   -1.053967
 8     5.049654    4.622320   -1.285892
 8     7.303607    4.551046   -1.121623
 6     7.370376    5.942741   -1.483219
 1     6.944427    6.097414   -2.475575
 1     6.823812    6.548393   -0.759226
 1     8.428176    6.193112   -1.474066
 1     4.027359    2.172062   -0.700610
 6     8.432625   -1.681481    0.378047
 6     9.676085   -1.205887    0.713146
 6     9.888149    0.086727    1.261912
 7    10.053217    1.127542    1.738771
 6    10.879484   -2.097164    0.718285
 8    11.846749   -1.900768    1.397866
 8    10.816483   -3.192706   -0.094466
 1    10.132726   -3.071141   -0.762969
 1     8.379649   -2.754691    0.207370
 6    -0.027915   -3.601173   -1.821045
 1    -0.007959   -2.826361   -2.589895
 1     0.839207   -4.251575   -1.964513
 1    -0.928742   -4.203986   -1.963969
 6    -0.040437   -4.085156    0.669821
 1    -0.025893   -3.655350    1.673304
 1    -0.943515   -4.693214    0.569463
 1     0.824494   -4.745968    0.565774


