%mem=1600mb
%nprocs=4
#N B3LYP/6-311G(d,p) OPT

Name ModRedundant - Minimalist working constrained optimisation

0 1
C          1.03574        0.00595        0.07469
C          2.55470        0.00522        0.08738
C          3.09911       -0.09787        1.51074
C          4.61864       -0.09680        1.52332
H          0.66397        0.08028       -0.95190
H          0.63958        0.85477        0.64195
H          0.63970       -0.91556        0.51395
H          2.92020        0.92409       -0.38591
H          2.92031       -0.83603       -0.51327
H          2.73469       -1.01748        1.98335
H          2.73248        0.74264        2.11162
H          5.01507       -0.94458        0.95560
H          4.98980       -0.17118        2.55018
H          5.01275        0.82538        1.08461

