%mem=8gb 
#N B3LYP/6-311G(d,p) OPT  

C61H46O6N4S3

0 1
O          1.16842        0.46467       -0.54682
C          0.96225        1.58019       -1.00344
N         -0.16587        1.98135       -1.69758
C         -1.28265        1.05737       -1.93849
C         -1.58715       -0.37683       -1.46360
O         -0.69836       -1.03161       -0.70810
O         -2.63753       -0.93089       -1.78445
C          1.92999        2.68707       -0.88694
S          1.32965        4.11591       -1.60745
C         -0.14233        3.30920       -2.17067
C         -0.98976        3.97528       -2.99475
S         -0.75470        5.62567       -3.54484
C         -1.78329        5.42763       -4.95118
N         -2.35943        4.18572       -4.90801
C         -3.23171        3.61052       -5.91906
C         -2.17938        3.47092       -3.74124
O         -2.93168        2.58545       -3.36981
S         -1.96180        6.61323       -6.10614
C          3.10998        2.49282       -0.28428
C          4.10894        3.49491       -0.20657
C          5.14306        3.73518       -1.08549
C          5.98009        4.80320       -0.66017
C          5.58187        5.36068        0.54323
C          6.15241        6.40843        1.31653
C          7.31857        6.98450        0.98265
C          7.95564        8.04523        1.77001
C          8.70642        9.01650        1.10922
C          9.34661       10.02759        1.83283
O         10.05225       10.93994        1.08052
C         10.67243       11.97536        1.74813
C         11.35335       12.88417        0.93168
C         12.00612       13.97090        1.49821
C         11.97309       14.14210        2.87717
C         11.29155       13.22681        3.69256
C         10.62475       12.11914        3.15115
N          9.92439       11.15678        3.89508
C          9.79611       11.23190        5.34602
C          9.26634       10.09726        3.23380
C          8.53322        9.09794        3.88554
C          7.89147        8.08106        3.16694
S          4.16282        4.57235        1.12056
H         -1.32593        0.96088       -3.02935
H         -2.14413        1.59947       -1.53173
H          0.14012       -0.54897       -0.52618
H         -3.26088        4.19979       -6.83569
H         -4.24004        3.49942       -5.51075
H         -2.84977        2.61090       -6.15824
H          3.35713        1.52351        0.14303
H          5.30104        3.16741       -1.99428
H          6.84677        5.13366       -1.21860
H          5.61785        6.73453        2.20723
H          7.86116        6.69368        0.08826
H          8.79612        9.00909        0.02559
H         11.36918       12.73708       -0.14415
H         12.53507       14.68099        0.86866
H         12.47993       14.99072        3.32953
H         11.30846       13.42184        4.75786
H         10.31280       12.07197        5.81144
H         10.21008       10.33053        5.81413
H          8.74186       11.32831        5.63404
H          8.44277        9.07414        4.96722
H          7.35450        7.31482        3.72082

