%mem=8gb 
#N B3LYP/6-311G(d,p) OPT  

C61H46O6N4S3

0 1




