#N B3LYP/6-311G(d,p) Opt

aaa

0 1
C          2.20751        2.02736       -0.16615
C          3.15415        1.36581        0.77375
C          2.96594        1.14406        2.12305
C          1.82150        1.48575        2.90482
C          0.91742        1.78782        3.63130
C         -0.07991        2.24098        4.52907
C         -0.85136        3.34844        4.18385
C         -1.76209        3.88031        5.09654
C         -1.88840        3.29398        6.36420
C         -2.81494        3.82682        7.39338
O         -2.97422        5.16949        7.34396
O         -3.34388        3.11793        8.23864
C         -1.15339        2.15611        6.69398
C         -0.25054        1.63170        5.78091
S          4.31072        0.39906        2.85566
C          5.07982        0.17383        1.34650
C          6.23845       -0.68882        1.26045
C          7.29701       -0.44113        0.34180
N          7.44231        0.61809       -0.47453
S          8.82191        0.36621       -1.35473
N          9.32333       -1.08263       -0.73043
C          8.42634       -1.44542        0.20615
C          6.28298       -1.89182        1.98522
C          7.31889       -2.81042        1.86796
C          8.43037       -2.61236        1.02893
C          9.50784       -3.57895        1.01396
S          9.88031       -4.43341        2.45387
C         10.33817       -3.94798       -0.00823
C         11.14908       -5.08975        0.31865
C         12.02393       -5.61436       -0.80684
C         10.84242       -5.56271        1.63465
C         11.01768       -6.88486        2.30441
C         11.00159       -7.87346        1.40050
C         11.70990       -8.92262        1.82954
C         11.18758       -7.38875        3.74553
C         11.87742       -8.76767        4.06672
C         12.65657       -8.68895        2.87610
N         13.63756       -9.40304        3.46035
C         14.69586       -8.98301        4.36289
C         12.99489      -10.56558        3.54203
C         11.71571      -10.54448        4.12248
C         11.58569      -12.09555        4.16170
C         12.26268      -13.00360        3.28164
C         11.83842      -14.32699        3.42719
C         12.31076      -15.60798        3.05527
C         11.53455      -16.73403        3.31923
C         10.27841      -16.59316        3.90114
C          9.81972      -15.33925        4.34437
C         10.65340      -14.21850        4.14592
N         10.77267      -12.95170        4.87779
C         10.90258      -13.26386        6.31547
C         13.21277      -12.64108        2.38113
C         13.52325      -11.35189        2.53344
C         13.56053      -10.92794        1.17897
C         14.62311      -11.74535        0.82506
N         13.86241      -12.95918        1.19588
C         13.30545      -13.78134        0.13216
C         15.32061      -11.20516       -0.28168
C         14.65759      -10.23667       -1.09494
C         13.28988      -10.09155       -1.02296
C         12.68507      -10.63939        0.08015
C          4.40845        0.82029        0.33721
H          1.32285        2.41295        0.34727
H          1.87874        1.31564       -0.92950
H          2.70579        2.86452       -0.66397
H         -0.73131        3.80211        3.20174
H         -2.36365        4.72877        4.79778
H         -2.42421        5.68778        6.72080
H         -1.26332        1.68288        7.66190
H          0.34523        0.74721        6.04813
H          5.47060       -2.15720        2.65849
H          7.23524       -3.72085        2.45968
H         10.31312       -3.48602       -0.99368
H         11.97658       -4.92615       -1.67397
H         11.68355       -6.57601       -1.19807
H         13.08165       -5.65550       -0.53801
H         10.39767       -7.88122        0.50389
H         11.16410       -9.86545        1.77828
H         11.57700       -6.56707        4.39487
H         14.90011       -7.92280        4.21331
H         15.58891       -9.58042        4.14627
H         14.38143       -9.16863        5.39800
H         13.30580      -15.71336        2.63488
H         11.92428      -17.71958        3.07783
H          9.67801      -17.48517        4.07249
H          8.88765      -15.27356        4.89778
H         11.02005      -12.37633        6.92493
H         11.77767      -13.93182        6.42801
H         10.02570      -13.84684        6.63441
H         13.18773      -14.80258        0.47736
H         13.97937      -13.73636       -0.72694
H         12.33351      -13.36116       -0.15606
H         16.39836      -11.06530       -0.18213
H         15.21322       -9.58673       -1.76389
H         12.70405       -9.52194       -1.73714
H         11.60118      -10.69286        0.13407
H          4.74824        0.82721       -0.69140

