%mem=1600mb
%nprocs=4
#N B3LYP/6-311G(d,p) OPT

Name ModRedundant - Minimalist working constrained optimisation

0 1
C         -0.07844       -2.72270        1.19624
C         -0.05090       -1.83343       -0.04736
C         -0.01676       -2.66513       -1.33186
C         -1.20228       -0.82170       -0.06472
C         -0.74335        0.47988       -0.05122
C          0.67394        0.47028       -0.01744
C          1.11244       -0.83848       -0.00215
C          2.51730       -0.92375        0.05637
C          3.10670        0.33960        0.05504
C          4.54734        0.65866        0.06678
C          5.45433       -0.21241       -0.55650
C          6.83053        0.03369       -0.53015
C          7.35996        1.15544        0.12963
N          8.78541        1.38264        0.18869
C          9.33255        2.72500        0.13960
C         10.50540        3.04959        0.84874
C         11.10735        4.30616        0.74477
C         10.51927        5.29769       -0.03240
O         11.00281        6.56516       -0.20374
C         12.23603        6.86525        0.44004
C          9.33064        5.01324       -0.70735
C          8.74865        3.73941       -0.63504
C          9.68841        0.26126        0.36848
C         10.94839        0.23948       -0.25924
C         11.88053       -0.76918        0.00651
C         11.55273       -1.81314        0.86694
O         12.36819       -2.85729        1.20537
C         13.66143       -2.87443        0.61244
C         10.28927       -1.83342        1.46009
C          9.36848       -0.80645        1.22124
C          6.44639        2.02714        0.74794
C          5.06469        1.78561        0.71351
S          1.89839        1.59651        0.00471
S         -1.94661        1.62583       -0.06469
C         -3.18648        0.39194       -0.08879
C         -4.61127        0.77135       -0.06870
C         -5.12205        1.99905       -0.55458
C         -6.48866        2.38074       -0.47256
C         -7.49976        1.56937        0.08997
C         -8.88582        2.00960        0.33352
C         -9.97889        1.15604        0.10720
C        -11.25514        1.46719        0.58266
C        -11.47506        2.67164        1.25177
C        -12.81684        2.90995        1.84130
O        -13.21254        4.19389        1.77361
O        -13.50761        2.01808        2.30378
C        -10.42184        3.57554        1.41940
C         -9.14086        3.24610        0.95437
C         -7.05059        0.29257        0.55619
N         -7.81612       -0.66076        1.11952
S         -6.83141       -1.91417        1.53233
N         -5.37725       -1.32685        1.02212
C         -5.58923       -0.10835        0.48743
C         -2.61098       -0.87930       -0.09382
H         -0.95145       -3.38453        1.19217
H         -0.11966       -2.13039        2.11853
H          0.81927       -3.34977        1.25164
H         -0.87911       -3.33830       -1.39116
H          0.89338       -3.27311       -1.38512
H         -0.03676       -2.02847       -2.22512
H          3.07757       -1.84990        0.09553
H          5.10119       -1.09878       -1.07819
H          7.49393       -0.66404       -1.03925
H         10.98003        2.31256        1.49265
H         12.03351        4.46629        1.28524
H         12.46872        7.91748        0.25230
H         13.05145        6.26202        0.02562
H         12.16222        6.73380        1.52579
H          8.85710        5.78495       -1.30974
H          7.84645        3.54917       -1.21070
H         11.22898        1.03348       -0.94825
H         12.85271       -0.69692       -0.46878
H         14.15565       -3.80370        0.91066
H         14.26861       -2.03868        0.97671
H         13.60024       -2.87055       -0.48106
H         10.02334       -2.64534        2.13241
H          8.41250       -0.83401        1.73851
H          6.80539        2.90009        1.29009
H          4.40803        2.48362        1.22742
H         -4.43720        2.71579       -1.01079
H         -6.75582        3.36833       -0.85584
H         -9.83428        0.18667       -0.37325
H        -12.06139        0.74343        0.47633
H        -12.64871        4.76532        1.21816
H        -10.55543        4.49952        1.97675
H         -8.32320        3.93751        1.15753
H         -3.17870       -1.80308       -0.10298

