%mem=8gb 
#N B3LYP/6-311G(d,p) OPT Geom=Connectivity 

C61H46O6N4S3

0 1
C 0.00000000 0.00000000 0.00000000
C -1.04628100 -0.48005600 -1.00463800
C -0.43578700 -1.02954200 -2.12357000
C 0.98653400 -0.96814400 -1.96182200
S 2.40699200 -1.40688000 -2.83753900
C 3.43588400 -0.78271300 -1.52893200
C 2.66049700 -0.27119900 -0.49905000
C 1.27934900 -0.37724200 -0.74462400
H 3.11183800 0.15625600 0.38297500
C 4.88182100 -0.85834100 -1.64626300
C 5.69464573 -1.28006769 -0.60676931
C 7.10106447 -1.37623708 -0.69271677
C 7.82775798 -1.05224509 -1.82301168
C 7.03779917 -0.60396045 -2.93852896
N 7.51737371 -0.22115850 -4.12405176
S 6.24284765 0.21556731 -5.05009668
N 5.02852344 -0.05754393 -3.98272484
C 5.58412649 -0.50383857 -2.85537710
C 9.29749439 -1.15567293 -1.86123863
C 9.99776101 -1.53029427 -3.02118005
C 11.3771626 -1.66628155 -3.02137703
C 12.1270394 -1.43093380 -1.85745563
C 11.4377727 -1.04744472 -0.69528903
C 10.0589254 -0.91151994 -0.70490338
H 9.56421358 -0.59221994 0.20512938
H 11.9903317 -0.85100876 0.21460241
N 13.5306171 -1.57191629 -1.85651823
C 14.3411635 -0.72927299 -1.04542817
C 15.3857499 -1.26509552 -0.28156591
C 16.1832039 -0.44426374 0.50467415
C 15.9620990 0.94068148 0.57095920
C 14.9145279 1.46588522 -0.20199173
C 14.1217341 0.65272037 -1.00204298
H 13.3308835 1.08666509 -1.60198865
H 14.7358035 2.53539462 -0.20039449
C 16.7669374 1.82362951 1.45178393
C 16.1395095 2.82523179 2.21531046
C 16.8398391 3.65836409 3.07027758
C 18.2256564 3.51449557 3.20148945
C 18.8820681 2.53709491 2.45355489
C 18.1594110 1.70739287 1.59386092
O 18.8763377 0.74672968 0.90690926
C 19.2010670 1.09375351 -0.44204243
H 19.8233871 1.99551106 -0.47208914
H 19.7610649 0.25271766 -0.85034732
H 18.2991562 1.25502021 -1.04052478
H 19.9500897 2.38108623 2.51631531
O 18.8380616 4.36143999 4.07469862
C 20.2418329 4.24261240 4.26046563
H 20.5087479 4.99720506 4.99841831
H 20.5137313 3.25171408 4.64048720
H 20.7879568 4.43714397 3.33062042
H 16.3360401 4.41243470 3.66202208
H 15.0622062 2.92751836 2.15189393
H 16.9815120 -0.88154708 1.08912067
H 15.5654471 -2.33323373 -0.30200408
C 14.1553659 -2.57952626 -2.64704306
C 15.2879102 -2.28072725 -3.41421579
C 15.9084485 -3.26286707 -4.17403187
C 15.4201440 -4.57808741 -4.20791274
C 14.2783960 -4.86089324 -3.44313028
C 13.6595086 -3.88738916 -2.66848765
H 12.7826592 -4.13750455 -2.08340725
H 13.8631727 -5.86230775 -3.45821518
C 16.0924449 -5.65870443 -4.97316381
C 16.5414348 -5.49614945 -6.30034387
C 17.1525894 -6.54873967 -6.99173569
C 17.3295220 -7.78658553 -6.36661672
C 16.8945912 -7.97051648 -5.05361675
C 16.2901588 -6.91636335 -4.38692818
H 15.9725362 -7.06005709 -3.36055805
H 17.0472882 -8.93115289 -4.57889869
O 17.9179645 -8.86345763 -6.96058353
C 18.3836668 -8.74059683 -8.29563382
H 19.1606320 -7.97239711 -8.38263512
H 18.8087246 -9.70955625 -8.55228025
H 17.5660177 -8.51173105 -8.98872944
H 17.4814216 -6.40312296 -8.00849270
O 16.3334027 -4.27209470 -6.86837302
C 16.6904997 -4.06448382 -8.22587086
H 17.7690571 -4.17887792 -8.38330025
H 16.1502753 -4.74538899 -8.89301177
H 16.4031611 -3.03897343 -8.45262811
H 16.7816757 -3.00545050 -4.75812454
H 15.6837598 -1.27216672 -3.40606369
H 11.8851168 -1.95783380 -3.93191601
H 9.45443613 -1.70987164 -3.93802071
H 7.62792985 -1.75067213 0.17652823
H 5.23975440 -1.56749570 0.33440157
S -1.57722800 -1.58585300 -3.28851600
C -2.92301400 -1.06748100 -2.25902200
C -2.44744400 -0.50303600 -1.08319800
H -3.10684100 -0.10581800 -0.32314400
C -4.29952600 -1.25381500 -2.68013000
C -5.36449100 -1.09202300 -1.76856700
C -6.67413900 -1.26054500 -2.16952600
C -7.00705000 -1.60779200 -3.49728000
C -5.94166800 -1.77568400 -4.40794700
C -4.63223000 -1.60034100 -4.00826500
H -3.84529400 -1.72135000 -4.74356500
H -6.13723200 -2.03899300 -5.43819800
C -8.40540400 -1.76466800 -3.81187000
C -9.05155000 -2.08141100 -4.96807500
C -8.42291100 -2.34550200 -6.21354600
N -7.99764000 -2.57521600 -7.26701100
C -10.5570130 -2.15869900 -4.92584600
O -11.1914570 -1.95281900 -3.92613500
O -11.1767460 -2.47559600 -6.08223400
H -10.5411910 -2.61253200 -6.79897600
H -9.09066800 -1.60346800 -2.98346000
H -7.47193100 -1.13223600 -1.44593100
H -5.15814200 -0.84952100 -0.73392300
C -0.09070700 1.52393700 0.22850700
H -0.01204400 2.06689600 -0.71542100
H -1.04275500 1.78611100 0.69835500
H 0.71504900 1.85992300 0.88641600
C -0.11435000 -0.75608100 1.34110100
H -0.05605200 -1.83561600 1.18861700
H 0.69353700 -0.46051600 2.01568500
H -1.06492800 -0.52808800 1.83134000

1 2 1 8 1 113 1 117 1
2 1 1 3 1 92 1
3 2 1 4 1 90 1
4 3 1 5 1 8 1
5 4 1 6 1
6 5 1 7 1 10 1
7 6 1 8 1 9 1
8 1 1 4 1 7 1
9 7 1
10 6 1 11 1 18 1
11 10 1 12 1 89 1
12 11 1 13 1 88 1
13 12 1 14 1 19 1
14 13 1 15 2 18 1
15 14 2 16 1
16 15 1 17 1
17 16 1 18 2
18 10 1 14 1 17 2
19 13 1 20 1 24 1
20 19 1 21 1 87 1
21 20 1 22 1 86 1
22 21 1 23 1 27 1
23 22 1 24 1 26 1
24 19 1 23 1 25 1
25 24 1
26 23 1
27 22 1 28 1 57 1
28 27 1 29 1 33 1
29 28 1 30 1 56 1
30 29 1 31 1 55 1
31 30 1 32 1 36 1
32 31 1 33 1 35 1
33 28 1 32 1 34 1
34 33 1
35 32 1
36 31 1 37 1 41 1
37 36 1 38 1 54 1
38 37 1 39 1 53 1
39 38 1 40 1 48 1
40 39 1 41 1 47 1
41 36 1 40 1 42 1
42 41 1 43 1
43 42 1 44 1 45 1 46 1
44 43 1
45 43 1
46 43 1
47 40 1
48 39 1 49 1
49 48 1 50 1 51 1 52 1
50 49 1
51 49 1
52 49 1
53 38 1
54 37 1
55 30 1
56 29 1
57 27 1 58 1 62 1
58 57 1 59 1 85 1
59 58 1 60 1 84 1
60 59 1 61 1 65 1
61 60 1 62 1 64 1
62 57 1 61 1 63 1
63 62 1
64 61 1
65 60 1 66 1 70 1
66 65 1 67 1 79 1
67 66 1 68 1 78 1
68 67 1 69 1 73 1
69 68 1 70 1 72 1
70 65 1 69 1 71 1
71 70 1
72 69 1
73 68 1 74 1
74 73 1 75 1 76 1 77 1
75 74 1
76 74 1
77 74 1
78 67 1
79 66 1 80 1
80 79 1 81 1 82 1 83 1
81 80 1
82 80 1
83 80 1
84 59 1
85 58 1
86 21 1
87 20 1
88 12 1
89 11 1
90 3 1 91 1
91 90 1 92 1 94 1
92 2 1 91 1 93 1
93 92 1
94 91 1 95 1 99 1
95 94 1 96 1 112 1
96 95 1 97 1 111 1
97 96 1 98 1 102 1
98 97 1 99 1 101 1
99 94 1 98 1 100 1
100 99 1
101 98 1
102 97 1 103 2 110 1
103 102 2 104 1 106 1
104 103 1 105 3
105 104 3
106 103 1 107 2 108 1
107 106 2
108 106 1 109 1
109 108 1
110 102 1
111 96 1
112 95 1
113 1 1 114 1 115 1 116 1
114 113 1
115 113 1
116 113 1
117 1 1 118 1 119 1 120 1
118 117 1
119 117 1
120 117 1




