%mem=8gb
#N TD(NStates=10) B3lYP/6-311G(d,p)   

C25H20ON4

0 1
 6    -4.631031    5.361136   -2.411965
 6     0.952221    5.740697   -1.473753
 6    -0.146433   -0.445370    0.147030
 6    -0.947089    0.692174   -0.068337
 6    -2.359020    0.429567   -0.016011
 6    -2.679179   -0.908980    0.260187
 1    -5.288656   -4.617098    1.156981
 1     0.860507    7.799804   -0.847875
 6    -2.784972    2.629555   -0.531279
 6    -1.353809    2.914069   -0.481952
 6     7.824722   -5.776095   -3.623969
 6     8.820585    3.045063    3.915736
 6    -3.958167   -1.574327    0.389483
 6    -5.176556   -0.890741    0.151509
 1    -7.291372   -0.958003    0.072563
 6    -4.043530   -2.938276    0.753936
 1    -5.141231    0.149716   -0.135119
 6     1.297547   -0.598599    0.150351
 6     2.162457    0.505724    0.306889
 6     3.536785    0.351629    0.317724
 6     4.132468   -0.918346    0.171651
 6     3.273532   -2.027315    0.018133
 6     1.901525   -1.865332    0.006245
 1     1.739779    1.494807    0.407860
 1     4.164243    1.225272    0.435011
 6    -5.262430   -3.570822    0.872697
 1     3.691571   -3.018690   -0.094374
 1     1.284605   -2.747058   -0.127164
 6     0.404280    6.818861   -0.779223
 6    -0.731085    6.628444    0.007254
 6    -6.479154   -2.889616    0.638832
 1    -6.588008    6.143747   -1.971527
 6    -6.394931   -1.527437    0.271705
 6     6.371743   -0.113043    0.805884
 6     7.424824    0.474129    0.091519
 6     8.271763    1.383955    0.703834
 6     8.078764    1.742664    2.045104
 6     7.027087    1.165339    2.763738
 6     6.191132    0.237049    2.144271
 1     7.579146    0.209308   -0.947690
 1     9.088486    1.839686    0.156997
 6    -7.695069   -3.647394    0.790412
 1     6.857048    1.415032    3.802069
 1     5.387599   -0.216572    2.712302
 6     6.141089   -2.190242   -0.470033
 6     7.052582   -2.993299    0.228903
 6     7.680930   -4.057226   -0.398404
 6     7.402670   -4.356297   -1.739342
 6     6.491011   -3.562645   -2.442798
 6     5.877831   -2.482852   -1.808608
 1     7.269510   -2.776009    1.267963
 1     8.387370   -4.680452    0.136639
 1     6.261671   -3.761504   -3.480711
 1     5.184685   -1.863495   -2.365415
 6    -9.015144   -3.303944    0.695865
 1    -2.717927    4.412890   -2.611118
 1    -5.148781    3.074038    0.663746
 1    -7.506319   -4.683242    1.059202
 1    -4.487420    5.987204   -3.285059
 1    -6.913955    4.681992    0.008889
 6    -1.326181    5.372509    0.088090
 1     0.798017    3.639362   -1.911234
 1     1.835597    5.880502   -2.086415
 6    -0.783844    4.283523   -0.607833
 6   -10.121801   -4.275787    0.951255
 1    -1.154853    7.458551    0.560742
 1    -2.205096    5.237183    0.706238
16    -1.186602   -1.801887    0.445836
 7    -3.247730    1.425711   -0.272546
 7    -0.483638    1.946718   -0.288249
 7     5.519459   -1.074533    0.175518
 6     0.368612    4.480809   -1.381344
 6    -3.805550    3.643200   -0.914214
 6    -3.629759    4.472905   -2.029876
 6    -5.004933    3.721022   -0.192913
 6    -5.813238    5.444955   -1.677486
 6    -5.996733    4.623060   -0.565829
 1     8.446316   -6.647642   -3.819049
 1     6.774233   -6.034687   -3.789716
 1     8.113716   -4.965439   -4.300067
 1     9.616962    3.763855    4.097804
 1     7.852263    3.522568    4.095030
 1     8.939376    2.192469    4.591564
 8     8.064222   -5.426213   -2.261112
 8     8.959743    2.649126    2.551526
 1    -3.143257   -3.508059    0.950856
 8   -11.240290   -3.925952    1.237937
 8    -9.834414   -5.595084    0.867360
 6    -9.478038   -1.979660    0.450833
 7    -9.870299   -0.911276    0.245382
 1    -8.989770   -5.751540    0.426869



