%mem=8gb 
#N PBE1PBE/6-311+G(2d,p) OPT  

AP25

0 1
